NAME: line_39_84
TYPE: TSP
COMMENT: srandom_39_84
DIMENSION: 39
EDGE_WEIGHT_TYPE: EUC_2D
NODE_COORD_SECTION
1 4604 3008
2 4105 4354
3 223 4687
4 833 4818
5 245 1070
6 996 4608
7 84 1114
8 1783 2126
9 1262 4320
10 4819 1201
11 755 4058
12 163 1305
13 1466 4901
14 2016 517
15 3596 83
16 2323 2773
17 3944 4959
18 2911 3514
19 62 2070
20 4758 1504
21 1086 1504
22 3991 4276
23 2910 2209
24 2711 3105
25 4208 2439
26 2381 3060
27 2648 159
28 2585 287
29 3103 4599
30 2144 4309
31 2038 4830
32 3219 4940
33 700 3317
34 983 1812
35 1936 1597
36 1694 2408
37 4852 4222
38 1274 4035
39 4315 2496
